1: 普通自洽计算，就按照我的常规计算方式。

&CONTROL
calculation  = 'scf'
prefix       = 'silicon'
restart_mode = 'from_scratch'
pseudo_dir   = './',
outdir       = './'
tstress      = .true.
tprnfor      = .true.
/

&SYSTEM
ibrav        = 2,
celldm(1)    = 10.2,
nat          = 2,
ntyp         = 1,
ecutwfc      = 50
occupations  = 'smearing'
smearing     = 'mp'
degauss      = 0.02
nbnd         = 28
/

&electrons
diagonalization = 'david'
mixing_mode = 'plain'
mixing_beta = 0.7
conv_thr = 1.0d-9
/

ATOMIC_SPECIES
Si  28.08600  Si.pbe-n-kjpaw_psl.0.1.UPF

ATOMIC_POSITIONS {crystal}
Si 0.000000000 0.000000000 0.000000000
Si 0.250000000 0.250000000 0.250000000

K_POINTS {automatic}
6 6 6 0 0 0

2： 用更密集的网格进行非自洽计算，网格要尽可能的密集。
3： 将计算的k点及对应的本征值转为xcrysden软件的bxsf格式。
fs.x < fs.in > fs.out
&fermi
outdir='./'
prefix='silicon'
/
4: 使用xcrysden来画图。
xcrysden --bxsf silicon.bxsf
————————————————————————————————————————————————

